maximize
OBJ:100x0 + 100x1 + 100x2 + 100x3 + 100x4 + 100x5 + 100x6 + 100x7 + 100x8 + 100x9 + 100x10 + 100x11 + 100x12 + 100x13 + 100x14 + 100x15 + 100x16 + 100x17 + 100x18 + 100x19 + 100x20 + 100x21 + 100x22 + 100x23 + 100x24 + 100x25 + 100x26 + 100x27 + 100x28 + 100x29 + 100x30 + 100x31 + 100x32 + 100x33 + 100x34 + 100x35 + 100x36 + 100x37 + 100x38 + 100x39 + 100x40 + 100x41 + 100x42 + 100x43 + 100x44 + 100x45 + 100x46 + 100x47 + 100x48 + 100x49 + 100x50 + 100x51 + 100x52 + 100x53 + 100x54 + 100x55 + 100x56 + 100x57 + 100x58 + 100x59 + 100x60 + 100x61 + 100x62 + 100x63 + 100x64 + 100x65 + 100x66 + 100x67 + 100x68 + 100x69 - y36_53 - y47_53 - y15_30 - y67_68 - y7_26 - y15_39 - y28_58 - y9_63 - y40_41 - y11_23 - y6_66 - y29_68 - y2_32 - y44_47 - y10_54 - y33_56 - y10_63 - y22_28 - y51_64 - y25_61 - y14_24 - y22_37 - y43_69 - y13_65 - y24_65 - y14_42 - y35_65 - y7_12 - y47_48 - y15_25 - y7_21 - y7_30 - y17_62 - y28_62 - y9_58 - y5_69 - y9_67 - y0_9 - y29_45 - y48_58 - y21_41 - y40_54 - y21_50 - y40_63 - y25_29 - y33_42 - y44_51 - y3_10 - y2_54 - y14_19 - y22_32 - y13_51 - y32_64 - y24_60 - y16_56 - y24_69 - y35_69 - y16_65 - y36_61 - y9_62 - y6_38 - y48_53 - y21_36 - y21_54 - y2_13 - y10_35 - y20_67 - y10_44 - y2_40 - y3_5 - y32_41 - y51_54 - y32_50 - y43_50 - y24_46 - y32_59 - y43_59 - y1_53 - y35_55 - y43_68 - y24_64 - y35_64 - y17_25 - y16_69 - y7_11 - y17_43 - y28_43 - y9_39 - y6_15 - y36_65 - y17_61 - y28_61 - y50_58 - y21_49 - y10_21 - y20_53 - y2_26 - y25_28 - y31_62 - y54_64 - y23_67 - y4_63 - y32_45 - y51_58 - y14_18 - y1_48 - y13_59 - y24_59 - y5_36 - y36_51 - y5_45 - y6_10 - y9_43 - y9_52 - y27_60 - y6_37 - y6_46 - y30_65 - y42_67 - y39_43 - y10_16 - y39_52 - y20_48 - y62_63 - y54_59 - y31_66 - y12_62 - y13_27 - y35_36 - y32_49 - y24_45 - y1_61 - y35_63 - y46_60 - y57_60 - y17_33 - y46_69 - y57_69 - y17_42 - y28_42 - y5_58 - y50_57 - y20_34 - y0_65 - y2_7 - y31_43 - y20_52 - y12_57 - y23_66 - y53_67 - y64_67 - y16_27 - y1_38 - y13_40 - y35_40 - y13_49 - y16_45 - y5_8 - y1_65 - y65_68 - y17_28 - y49_60 - y5_35 - y28_37 - y27_50 - y42_48 - y27_68 - y0_51 - y8_64 - y0_60 - y11_60 - y39_51 - y2_11 - y4_30 - y39_60 - y1_15 - y4_48 - y12_61 - y24_26 - y16_22 - y13_44 - y24_44 - y37_63 - y16_40 - y5_12 - y46_50 - y17_23 - y57_59 - y38_64 - y5_39 - y18_58 - y27_36 - y8_32 - y8_41 - y19_41 - y30_41 - y50_56 - y19_50 - y27_63 - y19_59 - y0_64 - y12_29 - y23_29 - y20_42 - y4_25 - y23_47 - y12_56 - y13_21 - y4_52 - y16_17 - y34_53 - y13_30 - y16_26 - y34_62 - y45_62 - y16_35 - y22_69 - y3_65 - y46_54 - y46_63 - y38_68 - y7_62 - y19_27 - y27_40 - y27_49 - y0_32 - y19_45 - y30_45 - y19_54 - y11_50 - y12_15 - y19_63 - y30_63 - y11_59 - y23_24 - y20_37 - y4_20 - y0_68 - y23_33 - y41_69 - y44_65 - y23_42 - y4_38 - y1_14 - y4_47 - y24_25 - y37_44 - y53_61 - y22_55 - y1_32 - y46_49 - y15_43 - y38_45 - y57_58 - y15_52 - y49_54 - y26_61 - y38_63 - y18_66 - y8_31 - y63_65 - y8_49 - y30_49 - y20_23 - y11_54 - y33_51 - y12_28 - y4_33 - y10_67 - y1_9 - y25_65 - y1_18 - y34_52 - y34_61 - y45_61 - y14_55 - y15_20 - y15_29 - y15_38 - y38_40 - y15_47 - y26_65 - y27_30 - y0_13 - y11_13 - y18_61 - y27_39 - y0_22 - y29_58 - y8_35 - y11_31 - y12_14 - y33_46 - y44_46 - y12_23 - y41_59 - y52_59 - y44_55 - y41_68 - y25_51 - y4_28 - y44_64 - y1_4 - y22_36 - y14_41 - y22_54 - y37_52 - y56_65 - y3_59 - y37_61 - y14_68 - y15_33 - y18_29 - y59_67 - y26_42 - y15_51 - y26_51 - y8_12 - y0_8 - y0_17 - y11_17 - y19_30 - y48_66 - y11_26 - y40_62 - y63_64 - y6_69 - y21_67 - y25_37 - y4_14 - y10_48 - y33_50 - y2_53 - y33_68 - y14_27 - y14_36 - y22_49 - y14_45 - y37_47 - y3_54 - y37_56 - y7_15 - y18_33 - y17_65 - y48_52 - y0_12 - y40_48 - y11_21 - y40_57 - y11_30 - y6_64 - y10_34 - y41_49 - y52_58 - y25_41 - y10_52 - y44_54 - y2_48 - y2_57 - y3_22 - y14_22 - y34_37 - y2_66 - y32_67 - y43_67 - y66_69 - y22_53 - y3_49 - y36_46 - y36_64 - y17_60 - y28_69 - y29_34 - y9_65 - y40_43 - y21_39 - y0_16 - y6_50 - y48_65 - y21_57 - y10_20 - y10_29 - y2_25 - y33_40 - y25_36 - y10_47 - y33_49 - y2_43 - y3_8 - y14_17 - y2_61 - y3_26 - y43_62 - y13_58 - y3_35 - y14_44 - y7_14 - y36_50 - y17_46 - y18_23 - y36_68 - y47_68 - y5_62 - y6_27 - y28_64 - y21_43 - y29_56 - y2_20 - y33_35 - y39_69 - y2_38 - y51_52 - y32_48 - y51_61 - y32_57 - y13_53 - y32_66 - y43_66 - y13_62 - y24_62 - y1_69 - y17_41 - y28_41 - y36_54 - y9_37 - y17_50 - y28_50 - y9_46 - y5_66 - y6_31 - y29_33 - y50_65 - y40_51 - y2_6 - y2_15 - y10_28 - y39_64 - y2_24 - y54_62 - y31_69 - y23_65 - y35_39 - y3_16 - y32_52 - y51_65 - y13_48 - y3_25 - y16_44 - y1_64 - y13_66 - y17_27 - y36_40 - y28_36 - y6_8 - y36_58 - y17_54 - y28_54 - y6_35 - y27_67 - y50_69 - y61_69 - y39_50 - y31_46 - y20_55 - y10_32 - y39_68 - y23_69 - y32_47 - y43_47 - y24_52 - y35_61 - y1_68 - y46_67 - y28_40 - y5_47 - y19_58 - y42_60 - y8_67 - y30_67 - y42_69 - y39_45 - y2_5 - y31_41 - y23_46 - y12_55 - y23_55 - y23_64 - y1_27 - y24_29 - y32_42 - y51_55 - y1_36 - y35_38 - y4_69 - y13_47 - y24_56 - y35_56 - y1_63 - y65_66 - y57_62 - y49_58 - y9_31 - y5_51 - y27_48 - y58_63 - y42_46 - y21_23 - y8_53 - y0_49 - y42_64 - y11_67 - y12_32 - y39_58 - y12_41 - y2_18 - y4_37 - y20_54 - y4_46 - y12_59 - y1_22 - y23_59 - y32_37 - y12_68 - y16_29 - y24_42 - y1_49 - y5_10 - y1_58 - y5_19 - y17_21 - y9_17 - y17_30 - y57_66 - y9_26 - y49_62 - y19_39 - y30_39 - y27_52 - y50_54 - y27_61 - y11_44 - y61_63 - y20_31 - y11_62 - y23_27 - y2_4 - y31_40 - y23_36 - y23_45 - y1_8 - y20_58 - y31_58 - y23_54 - y53_55 - y4_50 - y23_63 - y53_64 - y1_35 - y34_69 - y1_44 - y37_65 - y5_14 - y38_48 - y5_23 - y57_61 - y15_55 - y26_55 - y5_32 - y7_51 - y18_51 - y38_57 - y7_60 - y8_25 - y7_69 - y19_34 - y27_56 - y0_39 - y8_52 - y42_54 - y27_65 - y11_48 - y11_57 - y12_31 - y41_67 - y31_44 - y4_36 - y13_14 - y34_46 - y45_46 - y53_59 - y37_51 - y16_28 - y45_64 - y5_9 - y46_47 - y5_18 - y15_50 - y49_52 - y18_46 - y15_59 - y8_20 - y15_68 - y8_38 - y11_34 - y30_47 - y0_43 - y11_43 - y8_56 - y20_21 - y11_52 - y12_17 - y4_13 - y11_61 - y12_26 - y31_39 - y44_58 - y4_31 - y10_65 - y23_44 - y1_7 - y13_18 - y53_63 - y37_46 - y34_59 - y22_66 - y34_68 - y56_68 - y14_62 - y5_13 - y8_15 - y15_63 - y19_24 - y27_37 - y0_20 - y18_68 - y8_33 - y29_65 - y8_42 - y30_42 - y19_51 - y0_47 - y11_47 - y41_48 - y60_61 - y4_8 - y12_21 - y4_17 - y12_30 - y10_60 - y44_62 - y4_35 - y22_34 - y37_41 - y45_54 - y34_63 - y3_57 - y37_59 - y3_66 - y7_36 - y8_10 - y48_55 - y0_15 - y8_28 - y48_64 - y21_56 - y11_33 - y29_69 - y40_69 - y12_16 - y41_52 - y10_46 - y33_48 - y10_55 - y33_57 - y44_57 - y2_51 - y10_64 - y22_29 - y44_66 - y1_6 - y2_60 - y14_34 - y34_49 - y3_43 - y56_58 - y15_17 - y14_61 - y15_26 - y18_22 - y15_35 - y26_35 - y47_67 - y15_44 - y0_1 - y7_49 - y9_68 - y18_49 - y48_50 - y0_10 - y40_46 - y8_23 - y48_59 - y40_55 - y63_66 - y21_69 - y25_30 - y4_7 - y10_41 - y41_56 - y25_48 - y44_61 - y34_35 - y34_44 - y3_38 - y14_38 - y37_49 - y14_56
 Subject to
C1: x0+x1-y0_1 <=1 
C2: x0+x2 <=1 
C3: x0+x3 <=1 
C4: x0+x4 <=1 
C5: x0+x5 <=1 
C6: x0+x8-y0_8 <=1 
C7: x0+x9-y0_9 <=1 
C8: x0+x10-y0_10 <=1 
C9: x0+x11 <=1 
C10: x0+x12-y0_12 <=1 
C11: x0+x13-y0_13 <=1 
C12: x0+x14 <=1 
C13: x0+x15-y0_15 <=1 
C14: x0+x16-y0_16 <=1 
C15: x0+x17-y0_17 <=1 
C16: x0+x18 <=1 
C17: x0+x20-y0_20 <=1 
C18: x0+x21 <=1 
C19: x0+x22-y0_22 <=1 
C20: x0+x23 <=1 
C21: x0+x28 <=1 
C22: x0+x29 <=1 
C23: x0+x31 <=1 
C24: x0+x32-y0_32 <=1 
C25: x0+x34 <=1 
C26: x0+x37 <=1 
C27: x0+x38 <=1 
C28: x0+x39-y0_39 <=1 
C29: x0+x40 <=1 
C30: x0+x42 <=1 
C31: x0+x43-y0_43 <=1 
C32: x0+x45 <=1 
C33: x0+x47-y0_47 <=1 
C34: x0+x48 <=1 
C35: x0+x49-y0_49 <=1 
C36: x0+x50 <=1 
C37: x0+x51-y0_51 <=1 
C38: x0+x52 <=1 
C39: x0+x56 <=1 
C40: x0+x57 <=1 
C41: x0+x58 <=1 
C42: x0+x59 <=1 
C43: x0+x60-y0_60 <=1 
C44: x0+x63 <=1 
C45: x0+x64-y0_64 <=1 
C46: x0+x65-y0_65 <=1 
C47: x0+x66 <=1 
C48: x0+x68-y0_68 <=1 
C49: x1+x2 <=1 
C50: x1+x4-y1_4 <=1 
C51: x1+x5 <=1 
C52: x1+x6-y1_6 <=1 
C53: x1+x7-y1_7 <=1 
C54: x1+x8-y1_8 <=1 
C55: x1+x9-y1_9 <=1 
C56: x1+x12 <=1 
C57: x1+x14-y1_14 <=1 
C58: x1+x15-y1_15 <=1 
C59: x1+x18-y1_18 <=1 
C60: x1+x19 <=1 
C61: x1+x20 <=1 
C62: x1+x21 <=1 
C63: x1+x22-y1_22 <=1 
C64: x1+x25 <=1 
C65: x1+x26 <=1 
C66: x1+x27-y1_27 <=1 
C67: x1+x28 <=1 
C68: x1+x31 <=1 
C69: x1+x32-y1_32 <=1 
C70: x1+x34 <=1 
C71: x1+x35-y1_35 <=1 
C72: x1+x36-y1_36 <=1 
C73: x1+x38-y1_38 <=1 
C74: x1+x41 <=1 
C75: x1+x42 <=1 
C76: x1+x43 <=1 
C77: x1+x44-y1_44 <=1 
C78: x1+x45 <=1 
C79: x1+x46 <=1 
C80: x1+x47 <=1 
C81: x1+x48-y1_48 <=1 
C82: x1+x49-y1_49 <=1 
C83: x1+x52 <=1 
C84: x1+x53-y1_53 <=1 
C85: x1+x54 <=1 
C86: x1+x58-y1_58 <=1 
C87: x1+x61-y1_61 <=1 
C88: x1+x62 <=1 
C89: x1+x63-y1_63 <=1 
C90: x1+x64-y1_64 <=1 
C91: x1+x65-y1_65 <=1 
C92: x1+x67 <=1 
C93: x1+x68-y1_68 <=1 
C94: x1+x69-y1_69 <=1 
C95: x2+x4-y2_4 <=1 
C96: x2+x5-y2_5 <=1 
C97: x2+x6-y2_6 <=1 
C98: x2+x7-y2_7 <=1 
C99: x2+x10 <=1 
C100: x2+x11-y2_11 <=1 
C101: x2+x13-y2_13 <=1 
C102: x2+x15-y2_15 <=1 
C103: x2+x18-y2_18 <=1 
C104: x2+x19 <=1 
C105: x2+x20-y2_20 <=1 
C106: x2+x23 <=1 
C107: x2+x24-y2_24 <=1 
C108: x2+x25-y2_25 <=1 
C109: x2+x26-y2_26 <=1 
C110: x2+x29 <=1 
C111: x2+x30 <=1 
C112: x2+x32-y2_32 <=1 
C113: x2+x33 <=1 
C114: x2+x36 <=1 
C115: x2+x37 <=1 
C116: x2+x38-y2_38 <=1 
C117: x2+x39 <=1 
C118: x2+x40-y2_40 <=1 
C119: x2+x41 <=1 
C120: x2+x43-y2_43 <=1 
C121: x2+x44 <=1 
C122: x2+x48-y2_48 <=1 
C123: x2+x49 <=1 
C124: x2+x51-y2_51 <=1 
C125: x2+x52 <=1 
C126: x2+x53-y2_53 <=1 
C127: x2+x54-y2_54 <=1 
C128: x2+x56 <=1 
C129: x2+x57-y2_57 <=1 
C130: x2+x58 <=1 
C131: x2+x59 <=1 
C132: x2+x60-y2_60 <=1 
C133: x2+x61-y2_61 <=1 
C134: x2+x62 <=1 
C135: x2+x63 <=1 
C136: x2+x66-y2_66 <=1 
C137: x3+x5-y3_5 <=1 
C138: x3+x6 <=1 
C139: x3+x8-y3_8 <=1 
C140: x3+x10-y3_10 <=1 
C141: x3+x11 <=1 
C142: x3+x12 <=1 
C143: x3+x15 <=1 
C144: x3+x16-y3_16 <=1 
C145: x3+x17 <=1 
C146: x3+x21 <=1 
C147: x3+x22-y3_22 <=1 
C148: x3+x23 <=1 
C149: x3+x25-y3_25 <=1 
C150: x3+x26-y3_26 <=1 
C151: x3+x30 <=1 
C152: x3+x31 <=1 
C153: x3+x35-y3_35 <=1 
C154: x3+x36 <=1 
C155: x3+x38-y3_38 <=1 
C156: x3+x39 <=1 
C157: x3+x41 <=1 
C158: x3+x42 <=1 
C159: x3+x43-y3_43 <=1 
C160: x3+x44 <=1 
C161: x3+x45 <=1 
C162: x3+x47 <=1 
C163: x3+x48 <=1 
C164: x3+x49-y3_49 <=1 
C165: x3+x50 <=1 
C166: x3+x52 <=1 
C167: x3+x54-y3_54 <=1 
C168: x3+x57-y3_57 <=1 
C169: x3+x59-y3_59 <=1 
C170: x3+x61 <=1 
C171: x3+x62 <=1 
C172: x3+x63 <=1 
C173: x3+x65-y3_65 <=1 
C174: x3+x66-y3_66 <=1 
C175: x3+x68 <=1 
C176: x4+x7-y4_7 <=1 
C177: x4+x8-y4_8 <=1 
C178: x4+x9 <=1 
C179: x4+x10 <=1 
C180: x4+x13-y4_13 <=1 
C181: x4+x14-y4_14 <=1 
C182: x4+x17-y4_17 <=1 
C183: x4+x19 <=1 
C184: x4+x20-y4_20 <=1 
C185: x4+x21 <=1 
C186: x4+x23 <=1 
C187: x4+x25-y4_25 <=1 
C188: x4+x28-y4_28 <=1 
C189: x4+x29 <=1 
C190: x4+x30-y4_30 <=1 
C191: x4+x31-y4_31 <=1 
C192: x4+x33-y4_33 <=1 
C193: x4+x34 <=1 
C194: x4+x35-y4_35 <=1 
C195: x4+x36-y4_36 <=1 
C196: x4+x37-y4_37 <=1 
C197: x4+x38-y4_38 <=1 
C198: x4+x39 <=1 
C199: x4+x42 <=1 
C200: x4+x43 <=1 
C201: x4+x44 <=1 
C202: x4+x46-y4_46 <=1 
C203: x4+x47-y4_47 <=1 
C204: x4+x48-y4_48 <=1 
C205: x4+x50-y4_50 <=1 
C206: x4+x51 <=1 
C207: x4+x52-y4_52 <=1 
C208: x4+x53 <=1 
C209: x4+x56 <=1 
C210: x4+x58 <=1 
C211: x4+x59 <=1 
C212: x4+x60 <=1 
C213: x4+x63-y4_63 <=1 
C214: x4+x64 <=1 
C215: x4+x65 <=1 
C216: x4+x66 <=1 
C217: x4+x68 <=1 
C218: x4+x69-y4_69 <=1 
C219: x5+x8-y5_8 <=1 
C220: x5+x9-y5_9 <=1 
C221: x5+x10-y5_10 <=1 
C222: x5+x11 <=1 
C223: x5+x12-y5_12 <=1 
C224: x5+x13-y5_13 <=1 
C225: x5+x14-y5_14 <=1 
C226: x5+x15 <=1 
C227: x5+x16 <=1 
C228: x5+x18-y5_18 <=1 
C229: x5+x19-y5_19 <=1 
C230: x5+x20 <=1 
C231: x5+x21 <=1 
C232: x5+x23-y5_23 <=1 
C233: x5+x30 <=1 
C234: x5+x32-y5_32 <=1 
C235: x5+x33 <=1 
C236: x5+x35-y5_35 <=1 
C237: x5+x36-y5_36 <=1 
C238: x5+x39-y5_39 <=1 
C239: x5+x41 <=1 
C240: x5+x43 <=1 
C241: x5+x44 <=1 
C242: x5+x45-y5_45 <=1 
C243: x5+x46 <=1 
C244: x5+x47-y5_47 <=1 
C245: x5+x48 <=1 
C246: x5+x49 <=1 
C247: x5+x51-y5_51 <=1 
C248: x5+x53 <=1 
C249: x5+x55 <=1 
C250: x5+x56 <=1 
C251: x5+x57 <=1 
C252: x5+x58-y5_58 <=1 
C253: x5+x59 <=1 
C254: x5+x60 <=1 
C255: x5+x62-y5_62 <=1 
C256: x5+x66-y5_66 <=1 
C257: x5+x68 <=1 
C258: x5+x69-y5_69 <=1 
C259: x6+x7 <=1 
C260: x6+x8-y6_8 <=1 
C261: x6+x10-y6_10 <=1 
C262: x6+x11 <=1 
C263: x6+x12 <=1 
C264: x6+x13 <=1 
C265: x6+x15-y6_15 <=1 
C266: x6+x19 <=1 
C267: x6+x20 <=1 
C268: x6+x24 <=1 
C269: x6+x26 <=1 
C270: x6+x27-y6_27 <=1 
C271: x6+x28 <=1 
C272: x6+x29 <=1 
C273: x6+x30 <=1 
C274: x6+x31-y6_31 <=1 
C275: x6+x35-y6_35 <=1 
C276: x6+x37-y6_37 <=1 
C277: x6+x38-y6_38 <=1 
C278: x6+x40 <=1 
C279: x6+x43 <=1 
C280: x6+x45 <=1 
C281: x6+x46-y6_46 <=1 
C282: x6+x50-y6_50 <=1 
C283: x6+x52 <=1 
C284: x6+x56 <=1 
C285: x6+x57 <=1 
C286: x6+x60 <=1 
C287: x6+x61 <=1 
C288: x6+x62 <=1 
C289: x6+x63 <=1 
C290: x6+x64-y6_64 <=1 
C291: x6+x66-y6_66 <=1 
C292: x6+x68 <=1 
C293: x6+x69-y6_69 <=1 
C294: x7+x11-y7_11 <=1 
C295: x7+x12-y7_12 <=1 
C296: x7+x14-y7_14 <=1 
C297: x7+x15-y7_15 <=1 
C298: x7+x18 <=1 
C299: x7+x21-y7_21 <=1 
C300: x7+x22 <=1 
C301: x7+x23 <=1 
C302: x7+x25 <=1 
C303: x7+x26-y7_26 <=1 
C304: x7+x27 <=1 
C305: x7+x28 <=1 
C306: x7+x30-y7_30 <=1 
C307: x7+x33 <=1 
C308: x7+x34 <=1 
C309: x7+x36-y7_36 <=1 
C310: x7+x37 <=1 
C311: x7+x39 <=1 
C312: x7+x42 <=1 
C313: x7+x43 <=1 
C314: x7+x44 <=1 
C315: x7+x45 <=1 
C316: x7+x47 <=1 
C317: x7+x49-y7_49 <=1 
C318: x7+x50 <=1 
C319: x7+x51-y7_51 <=1 
C320: x7+x52 <=1 
C321: x7+x54 <=1 
C322: x7+x56 <=1 
C323: x7+x59 <=1 
C324: x7+x60-y7_60 <=1 
C325: x7+x61 <=1 
C326: x7+x62-y7_62 <=1 
C327: x7+x63 <=1 
C328: x7+x68 <=1 
C329: x7+x69-y7_69 <=1 
C330: x8+x9 <=1 
C331: x8+x10-y8_10 <=1 
C332: x8+x11 <=1 
C333: x8+x12-y8_12 <=1 
C334: x8+x13 <=1 
C335: x8+x14 <=1 
C336: x8+x15-y8_15 <=1 
C337: x8+x17 <=1 
C338: x8+x19 <=1 
C339: x8+x20-y8_20 <=1 
C340: x8+x23-y8_23 <=1 
C341: x8+x25-y8_25 <=1 
C342: x8+x27 <=1 
C343: x8+x28-y8_28 <=1 
C344: x8+x29 <=1 
C345: x8+x30 <=1 
C346: x8+x31-y8_31 <=1 
C347: x8+x32-y8_32 <=1 
C348: x8+x33-y8_33 <=1 
C349: x8+x35-y8_35 <=1 
C350: x8+x37 <=1 
C351: x8+x38-y8_38 <=1 
C352: x8+x41-y8_41 <=1 
C353: x8+x42-y8_42 <=1 
C354: x8+x43 <=1 
C355: x8+x44 <=1 
C356: x8+x46 <=1 
C357: x8+x47 <=1 
C358: x8+x48 <=1 
C359: x8+x49-y8_49 <=1 
C360: x8+x50 <=1 
C361: x8+x52-y8_52 <=1 
C362: x8+x53-y8_53 <=1 
C363: x8+x55 <=1 
C364: x8+x56-y8_56 <=1 
C365: x8+x57 <=1 
C366: x8+x58 <=1 
C367: x8+x61 <=1 
C368: x8+x62 <=1 
C369: x8+x64-y8_64 <=1 
C370: x8+x67-y8_67 <=1 
C371: x8+x68 <=1 
C372: x9+x11 <=1 
C373: x9+x12 <=1 
C374: x9+x13 <=1 
C375: x9+x14 <=1 
C376: x9+x15 <=1 
C377: x9+x17-y9_17 <=1 
C378: x9+x19 <=1 
C379: x9+x20 <=1 
C380: x9+x21 <=1 
C381: x9+x23 <=1 
C382: x9+x25 <=1 
C383: x9+x26-y9_26 <=1 
C384: x9+x27 <=1 
C385: x9+x28 <=1 
C386: x9+x31-y9_31 <=1 
C387: x9+x33 <=1 
C388: x9+x34 <=1 
C389: x9+x35 <=1 
C390: x9+x37-y9_37 <=1 
C391: x9+x39-y9_39 <=1 
C392: x9+x40 <=1 
C393: x9+x42 <=1 
C394: x9+x43-y9_43 <=1 
C395: x9+x44 <=1 
C396: x9+x45 <=1 
C397: x9+x46-y9_46 <=1 
C398: x9+x47 <=1 
C399: x9+x48 <=1 
C400: x9+x49 <=1 
C401: x9+x52-y9_52 <=1 
C402: x9+x54 <=1 
C403: x9+x55 <=1 
C404: x9+x56 <=1 
C405: x9+x57 <=1 
C406: x9+x58-y9_58 <=1 
C407: x9+x60 <=1 
C408: x9+x61 <=1 
C409: x9+x62-y9_62 <=1 
C410: x9+x63-y9_63 <=1 
C411: x9+x65-y9_65 <=1 
C412: x9+x66 <=1 
C413: x9+x67-y9_67 <=1 
C414: x9+x68-y9_68 <=1 
C415: x10+x12 <=1 
C416: x10+x14 <=1 
C417: x10+x15 <=1 
C418: x10+x16-y10_16 <=1 
C419: x10+x20-y10_20 <=1 
C420: x10+x21-y10_21 <=1 
C421: x10+x22 <=1 
C422: x10+x25 <=1 
C423: x10+x28-y10_28 <=1 
C424: x10+x29-y10_29 <=1 
C425: x10+x30 <=1 
C426: x10+x31 <=1 
C427: x10+x32-y10_32 <=1 
C428: x10+x34-y10_34 <=1 
C429: x10+x35-y10_35 <=1 
C430: x10+x38 <=1 
C431: x10+x39 <=1 
C432: x10+x41-y10_41 <=1 
C433: x10+x43 <=1 
C434: x10+x44-y10_44 <=1 
C435: x10+x45 <=1 
C436: x10+x46-y10_46 <=1 
C437: x10+x47-y10_47 <=1 
C438: x10+x48-y10_48 <=1 
C439: x10+x52-y10_52 <=1 
C440: x10+x53 <=1 
C441: x10+x54-y10_54 <=1 
C442: x10+x55-y10_55 <=1 
C443: x10+x60-y10_60 <=1 
C444: x10+x63-y10_63 <=1 
C445: x10+x64-y10_64 <=1 
C446: x10+x65-y10_65 <=1 
C447: x10+x67-y10_67 <=1 
C448: x10+x68 <=1 
C449: x11+x13-y11_13 <=1 
C450: x11+x15 <=1 
C451: x11+x17-y11_17 <=1 
C452: x11+x19 <=1 
C453: x11+x20 <=1 
C454: x11+x21-y11_21 <=1 
C455: x11+x22 <=1 
C456: x11+x23-y11_23 <=1 
C457: x11+x24 <=1 
C458: x11+x25 <=1 
C459: x11+x26-y11_26 <=1 
C460: x11+x27 <=1 
C461: x11+x28 <=1 
C462: x11+x30-y11_30 <=1 
C463: x11+x31-y11_31 <=1 
C464: x11+x32 <=1 
C465: x11+x33-y11_33 <=1 
C466: x11+x34-y11_34 <=1 
C467: x11+x37 <=1 
C468: x11+x41 <=1 
C469: x11+x43-y11_43 <=1 
C470: x11+x44-y11_44 <=1 
C471: x11+x45 <=1 
C472: x11+x46 <=1 
C473: x11+x47-y11_47 <=1 
C474: x11+x48-y11_48 <=1 
C475: x11+x50-y11_50 <=1 
C476: x11+x52-y11_52 <=1 
C477: x11+x54-y11_54 <=1 
C478: x11+x56 <=1 
C479: x11+x57-y11_57 <=1 
C480: x11+x58 <=1 
C481: x11+x59-y11_59 <=1 
C482: x11+x60-y11_60 <=1 
C483: x11+x61-y11_61 <=1 
C484: x11+x62-y11_62 <=1 
C485: x11+x66 <=1 
C486: x11+x67-y11_67 <=1 
C487: x11+x69 <=1 
C488: x12+x14-y12_14 <=1 
C489: x12+x15-y12_15 <=1 
C490: x12+x16-y12_16 <=1 
C491: x12+x17-y12_17 <=1 
C492: x12+x21-y12_21 <=1 
C493: x12+x22 <=1 
C494: x12+x23-y12_23 <=1 
C495: x12+x24 <=1 
C496: x12+x25 <=1 
C497: x12+x26-y12_26 <=1 
C498: x12+x28-y12_28 <=1 
C499: x12+x29-y12_29 <=1 
C500: x12+x30-y12_30 <=1 
C501: x12+x31-y12_31 <=1 
C502: x12+x32-y12_32 <=1 
C503: x12+x33 <=1 
C504: x12+x38 <=1 
C505: x12+x39 <=1 
C506: x12+x40 <=1 
C507: x12+x41-y12_41 <=1 
C508: x12+x42 <=1 
C509: x12+x45 <=1 
C510: x12+x50 <=1 
C511: x12+x53 <=1 
C512: x12+x55-y12_55 <=1 
C513: x12+x56-y12_56 <=1 
C514: x12+x57-y12_57 <=1 
C515: x12+x59-y12_59 <=1 
C516: x12+x61-y12_61 <=1 
C517: x12+x62-y12_62 <=1 
C518: x12+x64 <=1 
C519: x12+x66 <=1 
C520: x12+x68-y12_68 <=1 
C521: x13+x14-y13_14 <=1 
C522: x13+x17 <=1 
C523: x13+x18-y13_18 <=1 
C524: x13+x19 <=1 
C525: x13+x20 <=1 
C526: x13+x21-y13_21 <=1 
C527: x13+x22 <=1 
C528: x13+x27-y13_27 <=1 
C529: x13+x30-y13_30 <=1 
C530: x13+x32 <=1 
C531: x13+x33 <=1 
C532: x13+x34 <=1 
C533: x13+x38 <=1 
C534: x13+x40-y13_40 <=1 
C535: x13+x44-y13_44 <=1 
C536: x13+x47-y13_47 <=1 
C537: x13+x48-y13_48 <=1 
C538: x13+x49-y13_49 <=1 
C539: x13+x51-y13_51 <=1 
C540: x13+x53-y13_53 <=1 
C541: x13+x56 <=1 
C542: x13+x58-y13_58 <=1 
C543: x13+x59-y13_59 <=1 
C544: x13+x61 <=1 
C545: x13+x62-y13_62 <=1 
C546: x13+x63 <=1 
C547: x13+x64 <=1 
C548: x13+x65-y13_65 <=1 
C549: x13+x66-y13_66 <=1 
C550: x13+x68 <=1 
C551: x14+x16 <=1 
C552: x14+x17-y14_17 <=1 
C553: x14+x18-y14_18 <=1 
C554: x14+x19-y14_19 <=1 
C555: x14+x22-y14_22 <=1 
C556: x14+x24-y14_24 <=1 
C557: x14+x25 <=1 
C558: x14+x27-y14_27 <=1 
C559: x14+x28 <=1 
C560: x14+x30 <=1 
C561: x14+x33 <=1 
C562: x14+x34-y14_34 <=1 
C563: x14+x35 <=1 
C564: x14+x36-y14_36 <=1 
C565: x14+x38-y14_38 <=1 
C566: x14+x39 <=1 
C567: x14+x41-y14_41 <=1 
C568: x14+x42-y14_42 <=1 
C569: x14+x43 <=1 
C570: x14+x44-y14_44 <=1 
C571: x14+x45-y14_45 <=1 
C572: x14+x47 <=1 
C573: x14+x48 <=1 
C574: x14+x50 <=1 
C575: x14+x51 <=1 
C576: x14+x54 <=1 
C577: x14+x55-y14_55 <=1 
C578: x14+x56-y14_56 <=1 
C579: x14+x58 <=1 
C580: x14+x61-y14_61 <=1 
C581: x14+x62-y14_62 <=1 
C582: x14+x63 <=1 
C583: x14+x65 <=1 
C584: x14+x68-y14_68 <=1 
C585: x15+x17-y15_17 <=1 
C586: x15+x20-y15_20 <=1 
C587: x15+x25-y15_25 <=1 
C588: x15+x26-y15_26 <=1 
C589: x15+x28 <=1 
C590: x15+x29-y15_29 <=1 
C591: x15+x30-y15_30 <=1 
C592: x15+x33-y15_33 <=1 
C593: x15+x34 <=1 
C594: x15+x35-y15_35 <=1 
C595: x15+x36 <=1 
C596: x15+x37 <=1 
C597: x15+x38-y15_38 <=1 
C598: x15+x39-y15_39 <=1 
C599: x15+x40 <=1 
C600: x15+x42 <=1 
C601: x15+x43-y15_43 <=1 
C602: x15+x44-y15_44 <=1 
C603: x15+x46 <=1 
C604: x15+x47-y15_47 <=1 
C605: x15+x48 <=1 
C606: x15+x50-y15_50 <=1 
C607: x15+x51-y15_51 <=1 
C608: x15+x52-y15_52 <=1 
C609: x15+x53 <=1 
C610: x15+x55-y15_55 <=1 
C611: x15+x58 <=1 
C612: x15+x59-y15_59 <=1 
C613: x15+x63-y15_63 <=1 
C614: x15+x64 <=1 
C615: x15+x65 <=1 
C616: x15+x68-y15_68 <=1 
C617: x15+x69 <=1 
C618: x16+x17-y16_17 <=1 
C619: x16+x20 <=1 
C620: x16+x21 <=1 
C621: x16+x22-y16_22 <=1 
C622: x16+x24 <=1 
C623: x16+x25 <=1 
C624: x16+x26-y16_26 <=1 
C625: x16+x27-y16_27 <=1 
C626: x16+x28-y16_28 <=1 
C627: x16+x29-y16_29 <=1 
C628: x16+x33 <=1 
C629: x16+x34 <=1 
C630: x16+x35-y16_35 <=1 
C631: x16+x37 <=1 
C632: x16+x39 <=1 
C633: x16+x40-y16_40 <=1 
C634: x16+x42 <=1 
C635: x16+x43 <=1 
C636: x16+x44-y16_44 <=1 
C637: x16+x45-y16_45 <=1 
C638: x16+x46 <=1 
C639: x16+x47 <=1 
C640: x16+x48 <=1 
C641: x16+x49 <=1 
C642: x16+x51 <=1 
C643: x16+x53 <=1 
C644: x16+x56-y16_56 <=1 
C645: x16+x60 <=1 
C646: x16+x61 <=1 
C647: x16+x62 <=1 
C648: x16+x63 <=1 
C649: x16+x64 <=1 
C650: x16+x65-y16_65 <=1 
C651: x16+x66 <=1 
C652: x16+x69-y16_69 <=1 
C653: x17+x18 <=1 
C654: x17+x21-y17_21 <=1 
C655: x17+x22 <=1 
C656: x17+x23-y17_23 <=1 
C657: x17+x24 <=1 
C658: x17+x25-y17_25 <=1 
C659: x17+x26 <=1 
C660: x17+x27-y17_27 <=1 
C661: x17+x28-y17_28 <=1 
C662: x17+x29 <=1 
C663: x17+x30-y17_30 <=1 
C664: x17+x31 <=1 
C665: x17+x33-y17_33 <=1 
C666: x17+x34 <=1 
C667: x17+x35 <=1 
C668: x17+x37 <=1 
C669: x17+x38 <=1 
C670: x17+x40 <=1 
C671: x17+x41-y17_41 <=1 
C672: x17+x42-y17_42 <=1 
C673: x17+x43-y17_43 <=1 
C674: x17+x45 <=1 
C675: x17+x46-y17_46 <=1 
C676: x17+x48 <=1 
C677: x17+x50-y17_50 <=1 
C678: x17+x52 <=1 
C679: x17+x54-y17_54 <=1 
C680: x17+x56 <=1 
C681: x17+x59 <=1 
C682: x17+x60-y17_60 <=1 
C683: x17+x61-y17_61 <=1 
C684: x17+x62-y17_62 <=1 
C685: x17+x63 <=1 
C686: x17+x65-y17_65 <=1 
C687: x18+x21 <=1 
C688: x18+x22-y18_22 <=1 
C689: x18+x23-y18_23 <=1 
C690: x18+x24 <=1 
C691: x18+x26 <=1 
C692: x18+x29-y18_29 <=1 
C693: x18+x30 <=1 
C694: x18+x33-y18_33 <=1 
C695: x18+x34 <=1 
C696: x18+x39 <=1 
C697: x18+x46-y18_46 <=1 
C698: x18+x49-y18_49 <=1 
C699: x18+x50 <=1 
C700: x18+x51-y18_51 <=1 
C701: x18+x52 <=1 
C702: x18+x56 <=1 
C703: x18+x58-y18_58 <=1 
C704: x18+x59 <=1 
C705: x18+x60 <=1 
C706: x18+x61-y18_61 <=1 
C707: x18+x66-y18_66 <=1 
C708: x18+x67 <=1 
C709: x18+x68-y18_68 <=1 
C710: x18+x69 <=1 
C711: x19+x20 <=1 
C712: x19+x21 <=1 
C713: x19+x22 <=1 
C714: x19+x23 <=1 
C715: x19+x24-y19_24 <=1 
C716: x19+x27-y19_27 <=1 
C717: x19+x28 <=1 
C718: x19+x29 <=1 
C719: x19+x30-y19_30 <=1 
C720: x19+x31 <=1 
C721: x19+x34-y19_34 <=1 
C722: x19+x35 <=1 
C723: x19+x36 <=1 
C724: x19+x38 <=1 
C725: x19+x39-y19_39 <=1 
C726: x19+x40 <=1 
C727: x19+x41-y19_41 <=1 
C728: x19+x42 <=1 
C729: x19+x45-y19_45 <=1 
C730: x19+x50-y19_50 <=1 
C731: x19+x51-y19_51 <=1 
C732: x19+x53 <=1 
C733: x19+x54-y19_54 <=1 
C734: x19+x55 <=1 
C735: x19+x57 <=1 
C736: x19+x58-y19_58 <=1 
C737: x19+x59-y19_59 <=1 
C738: x19+x61 <=1 
C739: x19+x62 <=1 
C740: x19+x63-y19_63 <=1 
C741: x19+x64 <=1 
C742: x19+x66 <=1 
C743: x20+x21-y20_21 <=1 
C744: x20+x22 <=1 
C745: x20+x23-y20_23 <=1 
C746: x20+x25 <=1 
C747: x20+x26 <=1 
C748: x20+x28 <=1 
C749: x20+x30 <=1 
C750: x20+x31-y20_31 <=1 
C751: x20+x34-y20_34 <=1 
C752: x20+x37-y20_37 <=1 
C753: x20+x39 <=1 
C754: x20+x40 <=1 
C755: x20+x42-y20_42 <=1 
C756: x20+x43 <=1 
C757: x20+x45 <=1 
C758: x20+x48-y20_48 <=1 
C759: x20+x52-y20_52 <=1 
C760: x20+x53-y20_53 <=1 
C761: x20+x54-y20_54 <=1 
C762: x20+x55-y20_55 <=1 
C763: x20+x58-y20_58 <=1 
C764: x20+x60 <=1 
C765: x20+x61 <=1 
C766: x20+x62 <=1 
C767: x20+x64 <=1 
C768: x20+x67-y20_67 <=1 
C769: x20+x69 <=1 
C770: x21+x22 <=1 
C771: x21+x23-y21_23 <=1 
C772: x21+x24 <=1 
C773: x21+x25 <=1 
C774: x21+x27 <=1 
C775: x21+x28 <=1 
C776: x21+x29 <=1 
C777: x21+x31 <=1 
C778: x21+x33 <=1 
C779: x21+x35 <=1 
C780: x21+x36-y21_36 <=1 
C781: x21+x39-y21_39 <=1 
C782: x21+x41-y21_41 <=1 
C783: x21+x42 <=1 
C784: x21+x43-y21_43 <=1 
C785: x21+x45 <=1 
C786: x21+x46 <=1 
C787: x21+x49-y21_49 <=1 
C788: x21+x50-y21_50 <=1 
C789: x21+x51 <=1 
C790: x21+x54-y21_54 <=1 
C791: x21+x55 <=1 
C792: x21+x56-y21_56 <=1 
C793: x21+x57-y21_57 <=1 
C794: x21+x59 <=1 
C795: x21+x60 <=1 
C796: x21+x61 <=1 
C797: x21+x66 <=1 
C798: x21+x67-y21_67 <=1 
C799: x21+x69-y21_69 <=1 
C800: x22+x27 <=1 
C801: x22+x28-y22_28 <=1 
C802: x22+x29-y22_29 <=1 
C803: x22+x30 <=1 
C804: x22+x32-y22_32 <=1 
C805: x22+x33 <=1 
C806: x22+x34-y22_34 <=1 
C807: x22+x35 <=1 
C808: x22+x36-y22_36 <=1 
C809: x22+x37-y22_37 <=1 
C810: x22+x38 <=1 
C811: x22+x43 <=1 
C812: x22+x44 <=1 
C813: x22+x46 <=1 
C814: x22+x49-y22_49 <=1 
C815: x22+x50 <=1 
C816: x22+x51 <=1 
C817: x22+x52 <=1 
C818: x22+x53-y22_53 <=1 
C819: x22+x54-y22_54 <=1 
C820: x22+x55-y22_55 <=1 
C821: x22+x58 <=1 
C822: x22+x59 <=1 
C823: x22+x62 <=1 
C824: x22+x64 <=1 
C825: x22+x65 <=1 
C826: x22+x66-y22_66 <=1 
C827: x22+x69-y22_69 <=1 
C828: x23+x24-y23_24 <=1 
C829: x23+x27-y23_27 <=1 
C830: x23+x28 <=1 
C831: x23+x29-y23_29 <=1 
C832: x23+x31 <=1 
C833: x23+x32 <=1 
C834: x23+x33-y23_33 <=1 
C835: x23+x34 <=1 
C836: x23+x35 <=1 
C837: x23+x36-y23_36 <=1 
C838: x23+x41 <=1 
C839: x23+x42-y23_42 <=1 
C840: x23+x44-y23_44 <=1 
C841: x23+x45-y23_45 <=1 
C842: x23+x46-y23_46 <=1 
C843: x23+x47-y23_47 <=1 
C844: x23+x48 <=1 
C845: x23+x53 <=1 
C846: x23+x54-y23_54 <=1 
C847: x23+x55-y23_55 <=1 
C848: x23+x57 <=1 
C849: x23+x58 <=1 
C850: x23+x59-y23_59 <=1 
C851: x23+x62 <=1 
C852: x23+x63-y23_63 <=1 
C853: x23+x64-y23_64 <=1 
C854: x23+x65-y23_65 <=1 
C855: x23+x66-y23_66 <=1 
C856: x23+x67-y23_67 <=1 
C857: x23+x69-y23_69 <=1 
C858: x24+x25-y24_25 <=1 
C859: x24+x26-y24_26 <=1 
C860: x24+x27 <=1 
C861: x24+x29-y24_29 <=1 
C862: x24+x31 <=1 
C863: x24+x42-y24_42 <=1 
C864: x24+x44-y24_44 <=1 
C865: x24+x45-y24_45 <=1 
C866: x24+x46-y24_46 <=1 
C867: x24+x47 <=1 
C868: x24+x49 <=1 
C869: x24+x50 <=1 
C870: x24+x52-y24_52 <=1 
C871: x24+x53 <=1 
C872: x24+x56-y24_56 <=1 
C873: x24+x59-y24_59 <=1 
C874: x24+x60-y24_60 <=1 
C875: x24+x62-y24_62 <=1 
C876: x24+x64-y24_64 <=1 
C877: x24+x65-y24_65 <=1 
C878: x24+x69-y24_69 <=1 
C879: x25+x28-y25_28 <=1 
C880: x25+x29-y25_29 <=1 
C881: x25+x30-y25_30 <=1 
C882: x25+x35 <=1 
C883: x25+x36-y25_36 <=1 
C884: x25+x37-y25_37 <=1 
C885: x25+x41-y25_41 <=1 
C886: x25+x47 <=1 
C887: x25+x48-y25_48 <=1 
C888: x25+x51-y25_51 <=1 
C889: x25+x57 <=1 
C890: x25+x59 <=1 
C891: x25+x60 <=1 
C892: x25+x61-y25_61 <=1 
C893: x25+x65-y25_65 <=1 
C894: x25+x67 <=1 
C895: x26+x29 <=1 
C896: x26+x31 <=1 
C897: x26+x32 <=1 
C898: x26+x35-y26_35 <=1 
C899: x26+x40 <=1 
C900: x26+x42-y26_42 <=1 
C901: x26+x43 <=1 
C902: x26+x44 <=1 
C903: x26+x48 <=1 
C904: x26+x51-y26_51 <=1 
C905: x26+x52 <=1 
C906: x26+x55-y26_55 <=1 
C907: x26+x56 <=1 
C908: x26+x57 <=1 
C909: x26+x58 <=1 
C910: x26+x59 <=1 
C911: x26+x60 <=1 
C912: x26+x61-y26_61 <=1 
C913: x26+x62 <=1 
C914: x26+x63 <=1 
C915: x26+x65-y26_65 <=1 
C916: x26+x66 <=1 
C917: x27+x28 <=1 
C918: x27+x30-y27_30 <=1 
C919: x27+x32 <=1 
C920: x27+x33 <=1 
C921: x27+x34 <=1 
C922: x27+x36-y27_36 <=1 
C923: x27+x37-y27_37 <=1 
C924: x27+x39-y27_39 <=1 
C925: x27+x40-y27_40 <=1 
C926: x27+x41 <=1 
C927: x27+x43 <=1 
C928: x27+x48-y27_48 <=1 
C929: x27+x49-y27_49 <=1 
C930: x27+x50-y27_50 <=1 
C931: x27+x51 <=1 
C932: x27+x52-y27_52 <=1 
C933: x27+x53 <=1 
C934: x27+x54 <=1 
C935: x27+x56-y27_56 <=1 
C936: x27+x58 <=1 
C937: x27+x60-y27_60 <=1 
C938: x27+x61-y27_61 <=1 
C939: x27+x62 <=1 
C940: x27+x63-y27_63 <=1 
C941: x27+x65-y27_65 <=1 
C942: x27+x66 <=1 
C943: x27+x67-y27_67 <=1 
C944: x27+x68-y27_68 <=1 
C945: x27+x69 <=1 
C946: x28+x31 <=1 
C947: x28+x34 <=1 
C948: x28+x36-y28_36 <=1 
C949: x28+x37-y28_37 <=1 
C950: x28+x39 <=1 
C951: x28+x40-y28_40 <=1 
C952: x28+x41-y28_41 <=1 
C953: x28+x42-y28_42 <=1 
C954: x28+x43-y28_43 <=1 
C955: x28+x47 <=1 
C956: x28+x48 <=1 
C957: x28+x49 <=1 
C958: x28+x50-y28_50 <=1 
C959: x28+x51 <=1 
C960: x28+x52 <=1 
C961: x28+x53 <=1 
C962: x28+x54-y28_54 <=1 
C963: x28+x58-y28_58 <=1 
C964: x28+x60 <=1 
C965: x28+x61-y28_61 <=1 
C966: x28+x62-y28_62 <=1 
C967: x28+x63 <=1 
C968: x28+x64-y28_64 <=1 
C969: x28+x65 <=1 
C970: x28+x66 <=1 
C971: x28+x67 <=1 
C972: x28+x69-y28_69 <=1 
C973: x29+x31 <=1 
C974: x29+x33-y29_33 <=1 
C975: x29+x34-y29_34 <=1 
C976: x29+x36 <=1 
C977: x29+x41 <=1 
C978: x29+x42 <=1 
C979: x29+x45-y29_45 <=1 
C980: x29+x48 <=1 
C981: x29+x50 <=1 
C982: x29+x54 <=1 
C983: x29+x56-y29_56 <=1 
C984: x29+x57 <=1 
C985: x29+x58-y29_58 <=1 
C986: x29+x59 <=1 
C987: x29+x61 <=1 
C988: x29+x62 <=1 
C989: x29+x63 <=1 
C990: x29+x64 <=1 
C991: x29+x65-y29_65 <=1 
C992: x29+x67 <=1 
C993: x29+x68-y29_68 <=1 
C994: x29+x69-y29_69 <=1 
C995: x30+x31 <=1 
C996: x30+x33 <=1 
C997: x30+x34 <=1 
C998: x30+x38 <=1 
C999: x30+x39-y30_39 <=1 
C1000: x30+x40 <=1 
C1001: x30+x41-y30_41 <=1 
C1002: x30+x42-y30_42 <=1 
C1003: x30+x43 <=1 
C1004: x30+x45-y30_45 <=1 
C1005: x30+x47-y30_47 <=1 
C1006: x30+x49-y30_49 <=1 
C1007: x30+x50 <=1 
C1008: x30+x52 <=1 
C1009: x30+x53 <=1 
C1010: x30+x54 <=1 
C1011: x30+x57 <=1 
C1012: x30+x58 <=1 
C1013: x30+x61 <=1 
C1014: x30+x63-y30_63 <=1 
C1015: x30+x65-y30_65 <=1 
C1016: x30+x67-y30_67 <=1 
C1017: x30+x68 <=1 
C1018: x31+x36 <=1 
C1019: x31+x39-y31_39 <=1 
C1020: x31+x40-y31_40 <=1 
C1021: x31+x41-y31_41 <=1 
C1022: x31+x42 <=1 
C1023: x31+x43-y31_43 <=1 
C1024: x31+x44-y31_44 <=1 
C1025: x31+x46-y31_46 <=1 
C1026: x31+x47 <=1 
C1027: x31+x51 <=1 
C1028: x31+x52 <=1 
C1029: x31+x54 <=1 
C1030: x31+x55 <=1 
C1031: x31+x56 <=1 
C1032: x31+x57 <=1 
C1033: x31+x58-y31_58 <=1 
C1034: x31+x60 <=1 
C1035: x31+x62-y31_62 <=1 
C1036: x31+x63 <=1 
C1037: x31+x64 <=1 
C1038: x31+x66-y31_66 <=1 
C1039: x31+x67 <=1 
C1040: x31+x69-y31_69 <=1 
C1041: x32+x37-y32_37 <=1 
C1042: x32+x38 <=1 
C1043: x32+x40 <=1 
C1044: x32+x41-y32_41 <=1 
C1045: x32+x42-y32_42 <=1 
C1046: x32+x44 <=1 
C1047: x32+x45-y32_45 <=1 
C1048: x32+x47-y32_47 <=1 
C1049: x32+x48-y32_48 <=1 
C1050: x32+x49-y32_49 <=1 
C1051: x32+x50-y32_50 <=1 
C1052: x32+x52-y32_52 <=1 
C1053: x32+x53 <=1 
C1054: x32+x54 <=1 
C1055: x32+x56 <=1 
C1056: x32+x57-y32_57 <=1 
C1057: x32+x59-y32_59 <=1 
C1058: x32+x60 <=1 
C1059: x32+x61 <=1 
C1060: x32+x62 <=1 
C1061: x32+x63 <=1 
C1062: x32+x64-y32_64 <=1 
C1063: x32+x65 <=1 
C1064: x32+x66-y32_66 <=1 
C1065: x32+x67-y32_67 <=1 
C1066: x32+x68 <=1 
C1067: x33+x34 <=1 
C1068: x33+x35-y33_35 <=1 
C1069: x33+x36 <=1 
C1070: x33+x40-y33_40 <=1 
C1071: x33+x42-y33_42 <=1 
C1072: x33+x43 <=1 
C1073: x33+x44 <=1 
C1074: x33+x45 <=1 
C1075: x33+x46-y33_46 <=1 
C1076: x33+x47 <=1 
C1077: x33+x48-y33_48 <=1 
C1078: x33+x49-y33_49 <=1 
C1079: x33+x50-y33_50 <=1 
C1080: x33+x51-y33_51 <=1 
C1081: x33+x53 <=1 
C1082: x33+x54 <=1 
C1083: x33+x56-y33_56 <=1 
C1084: x33+x57-y33_57 <=1 
C1085: x33+x62 <=1 
C1086: x33+x64 <=1 
C1087: x33+x68-y33_68 <=1 
C1088: x33+x69 <=1 
C1089: x34+x35-y34_35 <=1 
C1090: x34+x37-y34_37 <=1 
C1091: x34+x38 <=1 
C1092: x34+x40 <=1 
C1093: x34+x41 <=1 
C1094: x34+x42 <=1 
C1095: x34+x43 <=1 
C1096: x34+x44-y34_44 <=1 
C1097: x34+x45 <=1 
C1098: x34+x46-y34_46 <=1 
C1099: x34+x49-y34_49 <=1 
C1100: x34+x52-y34_52 <=1 
C1101: x34+x53-y34_53 <=1 
C1102: x34+x54 <=1 
C1103: x34+x55 <=1 
C1104: x34+x56 <=1 
C1105: x34+x57 <=1 
C1106: x34+x59-y34_59 <=1 
C1107: x34+x60 <=1 
C1108: x34+x61-y34_61 <=1 
C1109: x34+x62-y34_62 <=1 
C1110: x34+x63-y34_63 <=1 
C1111: x34+x68-y34_68 <=1 
C1112: x34+x69-y34_69 <=1 
C1113: x35+x36-y35_36 <=1 
C1114: x35+x37 <=1 
C1115: x35+x38-y35_38 <=1 
C1116: x35+x39-y35_39 <=1 
C1117: x35+x40-y35_40 <=1 
C1118: x35+x41 <=1 
C1119: x35+x46 <=1 
C1120: x35+x49 <=1 
C1121: x35+x50 <=1 
C1122: x35+x51 <=1 
C1123: x35+x52 <=1 
C1124: x35+x53 <=1 
C1125: x35+x54 <=1 
C1126: x35+x55-y35_55 <=1 
C1127: x35+x56-y35_56 <=1 
C1128: x35+x59 <=1 
C1129: x35+x61-y35_61 <=1 
C1130: x35+x63-y35_63 <=1 
C1131: x35+x64-y35_64 <=1 
C1132: x35+x65-y35_65 <=1 
C1133: x35+x68 <=1 
C1134: x35+x69-y35_69 <=1 
C1135: x36+x37 <=1 
C1136: x36+x39 <=1 
C1137: x36+x40-y36_40 <=1 
C1138: x36+x43 <=1 
C1139: x36+x44 <=1 
C1140: x36+x45 <=1 
C1141: x36+x46-y36_46 <=1 
C1142: x36+x47 <=1 
C1143: x36+x49 <=1 
C1144: x36+x50-y36_50 <=1 
C1145: x36+x51-y36_51 <=1 
C1146: x36+x53-y36_53 <=1 
C1147: x36+x54-y36_54 <=1 
C1148: x36+x57 <=1 
C1149: x36+x58-y36_58 <=1 
C1150: x36+x59 <=1 
C1151: x36+x61-y36_61 <=1 
C1152: x36+x62 <=1 
C1153: x36+x63 <=1 
C1154: x36+x64-y36_64 <=1 
C1155: x36+x65-y36_65 <=1 
C1156: x36+x66 <=1 
C1157: x36+x68-y36_68 <=1 
C1158: x36+x69 <=1 
C1159: x37+x39 <=1 
C1160: x37+x41-y37_41 <=1 
C1161: x37+x43 <=1 
C1162: x37+x44-y37_44 <=1 
C1163: x37+x46-y37_46 <=1 
C1164: x37+x47-y37_47 <=1 
C1165: x37+x49-y37_49 <=1 
C1166: x37+x50 <=1 
C1167: x37+x51-y37_51 <=1 
C1168: x37+x52-y37_52 <=1 
C1169: x37+x53 <=1 
C1170: x37+x56-y37_56 <=1 
C1171: x37+x59-y37_59 <=1 
C1172: x37+x61-y37_61 <=1 
C1173: x37+x63-y37_63 <=1 
C1174: x37+x65-y37_65 <=1 
C1175: x37+x66 <=1 
C1176: x37+x68 <=1 
C1177: x38+x39 <=1 
C1178: x38+x40-y38_40 <=1 
C1179: x38+x43 <=1 
C1180: x38+x45-y38_45 <=1 
C1181: x38+x46 <=1 
C1182: x38+x47 <=1 
C1183: x38+x48-y38_48 <=1 
C1184: x38+x49 <=1 
C1185: x38+x50 <=1 
C1186: x38+x54 <=1 
C1187: x38+x55 <=1 
C1188: x38+x56 <=1 
C1189: x38+x57-y38_57 <=1 
C1190: x38+x59 <=1 
C1191: x38+x60 <=1 
C1192: x38+x62 <=1 
C1193: x38+x63-y38_63 <=1 
C1194: x38+x64-y38_64 <=1 
C1195: x38+x67 <=1 
C1196: x38+x68-y38_68 <=1 
C1197: x38+x69 <=1 
C1198: x39+x41 <=1 
C1199: x39+x42 <=1 
C1200: x39+x43-y39_43 <=1 
C1201: x39+x45-y39_45 <=1 
C1202: x39+x46 <=1 
C1203: x39+x48 <=1 
C1204: x39+x50-y39_50 <=1 
C1205: x39+x51-y39_51 <=1 
C1206: x39+x52-y39_52 <=1 
C1207: x39+x55 <=1 
C1208: x39+x57 <=1 
C1209: x39+x58-y39_58 <=1 
C1210: x39+x59 <=1 
C1211: x39+x60-y39_60 <=1 
C1212: x39+x63 <=1 
C1213: x39+x64-y39_64 <=1 
C1214: x39+x67 <=1 
C1215: x39+x68-y39_68 <=1 
C1216: x39+x69-y39_69 <=1 
C1217: x40+x41-y40_41 <=1 
C1218: x40+x42 <=1 
C1219: x40+x43-y40_43 <=1 
C1220: x40+x44 <=1 
C1221: x40+x46-y40_46 <=1 
C1222: x40+x48-y40_48 <=1 
C1223: x40+x49 <=1 
C1224: x40+x51-y40_51 <=1 
C1225: x40+x53 <=1 
C1226: x40+x54-y40_54 <=1 
C1227: x40+x55-y40_55 <=1 
C1228: x40+x56 <=1 
C1229: x40+x57-y40_57 <=1 
C1230: x40+x58 <=1 
C1231: x40+x59 <=1 
C1232: x40+x61 <=1 
C1233: x40+x62-y40_62 <=1 
C1234: x40+x63-y40_63 <=1 
C1235: x40+x64 <=1 
C1236: x40+x66 <=1 
C1237: x40+x69-y40_69 <=1 
C1238: x41+x43 <=1 
C1239: x41+x44 <=1 
C1240: x41+x46 <=1 
C1241: x41+x47 <=1 
C1242: x41+x48-y41_48 <=1 
C1243: x41+x49-y41_49 <=1 
C1244: x41+x52-y41_52 <=1 
C1245: x41+x53 <=1 
C1246: x41+x55 <=1 
C1247: x41+x56-y41_56 <=1 
C1248: x41+x57 <=1 
C1249: x41+x59-y41_59 <=1 
C1250: x41+x60 <=1 
C1251: x41+x63 <=1 
C1252: x41+x64 <=1 
C1253: x41+x65 <=1 
C1254: x41+x67-y41_67 <=1 
C1255: x41+x68-y41_68 <=1 
C1256: x41+x69-y41_69 <=1 
C1257: x42+x43 <=1 
C1258: x42+x46-y42_46 <=1 
C1259: x42+x48-y42_48 <=1 
C1260: x42+x50 <=1 
C1261: x42+x52 <=1 
C1262: x42+x54-y42_54 <=1 
C1263: x42+x55 <=1 
C1264: x42+x56 <=1 
C1265: x42+x57 <=1 
C1266: x42+x60-y42_60 <=1 
C1267: x42+x62 <=1 
C1268: x42+x63 <=1 
C1269: x42+x64-y42_64 <=1 
C1270: x42+x65 <=1 
C1271: x42+x66 <=1 
C1272: x42+x67-y42_67 <=1 
C1273: x42+x69-y42_69 <=1 
C1274: x43+x44 <=1 
C1275: x43+x47-y43_47 <=1 
C1276: x43+x48 <=1 
C1277: x43+x50-y43_50 <=1 
C1278: x43+x53 <=1 
C1279: x43+x59-y43_59 <=1 
C1280: x43+x60 <=1 
C1281: x43+x61 <=1 
C1282: x43+x62-y43_62 <=1 
C1283: x43+x63 <=1 
C1284: x43+x64 <=1 
C1285: x43+x66-y43_66 <=1 
C1286: x43+x67-y43_67 <=1 
C1287: x43+x68-y43_68 <=1 
C1288: x43+x69-y43_69 <=1 
C1289: x44+x46-y44_46 <=1 
C1290: x44+x47-y44_47 <=1 
C1291: x44+x51-y44_51 <=1 
C1292: x44+x54-y44_54 <=1 
C1293: x44+x55-y44_55 <=1 
C1294: x44+x57-y44_57 <=1 
C1295: x44+x58-y44_58 <=1 
C1296: x44+x59 <=1 
C1297: x44+x61-y44_61 <=1 
C1298: x44+x62-y44_62 <=1 
C1299: x44+x63 <=1 
C1300: x44+x64-y44_64 <=1 
C1301: x44+x65-y44_65 <=1 
C1302: x44+x66-y44_66 <=1 
C1303: x45+x46-y45_46 <=1 
C1304: x45+x47 <=1 
C1305: x45+x51 <=1 
C1306: x45+x54-y45_54 <=1 
C1307: x45+x55 <=1 
C1308: x45+x56 <=1 
C1309: x45+x57 <=1 
C1310: x45+x58 <=1 
C1311: x45+x61-y45_61 <=1 
C1312: x45+x62-y45_62 <=1 
C1313: x45+x63 <=1 
C1314: x45+x64-y45_64 <=1 
C1315: x45+x65 <=1 
C1316: x46+x47-y46_47 <=1 
C1317: x46+x49-y46_49 <=1 
C1318: x46+x50-y46_50 <=1 
C1319: x46+x54-y46_54 <=1 
C1320: x46+x56 <=1 
C1321: x46+x60-y46_60 <=1 
C1322: x46+x63-y46_63 <=1 
C1323: x46+x64 <=1 
C1324: x46+x66 <=1 
C1325: x46+x67-y46_67 <=1 
C1326: x46+x69-y46_69 <=1 
C1327: x47+x48-y47_48 <=1 
C1328: x47+x50 <=1 
C1329: x47+x52 <=1 
C1330: x47+x53-y47_53 <=1 
C1331: x47+x56 <=1 
C1332: x47+x59 <=1 
C1333: x47+x60 <=1 
C1334: x47+x64 <=1 
C1335: x47+x65 <=1 
C1336: x47+x66 <=1 
C1337: x47+x67-y47_67 <=1 
C1338: x47+x68-y47_68 <=1 
C1339: x48+x50-y48_50 <=1 
C1340: x48+x52-y48_52 <=1 
C1341: x48+x53-y48_53 <=1 
C1342: x48+x54 <=1 
C1343: x48+x55-y48_55 <=1 
C1344: x48+x56 <=1 
C1345: x48+x58-y48_58 <=1 
C1346: x48+x59-y48_59 <=1 
C1347: x48+x60 <=1 
C1348: x48+x62 <=1 
C1349: x48+x63 <=1 
C1350: x48+x64-y48_64 <=1 
C1351: x48+x65-y48_65 <=1 
C1352: x48+x66-y48_66 <=1 
C1353: x48+x68 <=1 
C1354: x49+x50 <=1 
C1355: x49+x51 <=1 
C1356: x49+x52-y49_52 <=1 
C1357: x49+x54-y49_54 <=1 
C1358: x49+x58-y49_58 <=1 
C1359: x49+x60-y49_60 <=1 
C1360: x49+x61 <=1 
C1361: x49+x62-y49_62 <=1 
C1362: x49+x63 <=1 
C1363: x49+x64 <=1 
C1364: x50+x54-y50_54 <=1 
C1365: x50+x55 <=1 
C1366: x50+x56-y50_56 <=1 
C1367: x50+x57-y50_57 <=1 
C1368: x50+x58-y50_58 <=1 
C1369: x50+x62 <=1 
C1370: x50+x65-y50_65 <=1 
C1371: x50+x69-y50_69 <=1 
C1372: x51+x52-y51_52 <=1 
C1373: x51+x54-y51_54 <=1 
C1374: x51+x55-y51_55 <=1 
C1375: x51+x58-y51_58 <=1 
C1376: x51+x61-y51_61 <=1 
C1377: x51+x64-y51_64 <=1 
C1378: x51+x65-y51_65 <=1 
C1379: x51+x66 <=1 
C1380: x51+x69 <=1 
C1381: x52+x57 <=1 
C1382: x52+x58-y52_58 <=1 
C1383: x52+x59-y52_59 <=1 
C1384: x52+x61 <=1 
C1385: x52+x62 <=1 
C1386: x52+x66 <=1 
C1387: x52+x67 <=1 
C1388: x52+x68 <=1 
C1389: x52+x69 <=1 
C1390: x53+x55-y53_55 <=1 
C1391: x53+x58 <=1 
C1392: x53+x59-y53_59 <=1 
C1393: x53+x60 <=1 
C1394: x53+x61-y53_61 <=1 
C1395: x53+x63-y53_63 <=1 
C1396: x53+x64-y53_64 <=1 
C1397: x53+x65 <=1 
C1398: x53+x66 <=1 
C1399: x53+x67-y53_67 <=1 
C1400: x53+x68 <=1 
C1401: x54+x55 <=1 
C1402: x54+x56 <=1 
C1403: x54+x59-y54_59 <=1 
C1404: x54+x62-y54_62 <=1 
C1405: x54+x63 <=1 
C1406: x54+x64-y54_64 <=1 
C1407: x54+x66 <=1 
C1408: x54+x67 <=1 
C1409: x54+x68 <=1 
C1410: x55+x56 <=1 
C1411: x55+x57 <=1 
C1412: x55+x58 <=1 
C1413: x55+x59 <=1 
C1414: x55+x60 <=1 
C1415: x55+x61 <=1 
C1416: x55+x65 <=1 
C1417: x55+x68 <=1 
C1418: x55+x69 <=1 
C1419: x56+x57 <=1 
C1420: x56+x58-y56_58 <=1 
C1421: x56+x59 <=1 
C1422: x56+x60 <=1 
C1423: x56+x62 <=1 
C1424: x56+x65-y56_65 <=1 
C1425: x56+x66 <=1 
C1426: x56+x68-y56_68 <=1 
C1427: x56+x69 <=1 
C1428: x57+x58-y57_58 <=1 
C1429: x57+x59-y57_59 <=1 
C1430: x57+x60-y57_60 <=1 
C1431: x57+x61-y57_61 <=1 
C1432: x57+x62-y57_62 <=1 
C1433: x57+x65 <=1 
C1434: x57+x66-y57_66 <=1 
C1435: x57+x67 <=1 
C1436: x57+x68 <=1 
C1437: x57+x69-y57_69 <=1 
C1438: x58+x63-y58_63 <=1 
C1439: x58+x64 <=1 
C1440: x58+x69 <=1 
C1441: x59+x60 <=1 
C1442: x59+x61 <=1 
C1443: x59+x65 <=1 
C1444: x59+x67-y59_67 <=1 
C1445: x60+x61-y60_61 <=1 
C1446: x60+x62 <=1 
C1447: x60+x63 <=1 
C1448: x60+x67 <=1 
C1449: x60+x69 <=1 
C1450: x61+x63-y61_63 <=1 
C1451: x61+x64 <=1 
C1452: x61+x65 <=1 
C1453: x61+x68 <=1 
C1454: x61+x69-y61_69 <=1 
C1455: x62+x63-y62_63 <=1 
C1456: x62+x64 <=1 
C1457: x62+x65 <=1 
C1458: x62+x69 <=1 
C1459: x63+x64-y63_64 <=1 
C1460: x63+x65-y63_65 <=1 
C1461: x63+x66-y63_66 <=1 
C1462: x64+x66 <=1 
C1463: x64+x67-y64_67 <=1 
C1464: x64+x68 <=1 
C1465: x64+x69 <=1 
C1466: x65+x66-y65_66 <=1 
C1467: x65+x67 <=1 
C1468: x65+x68-y65_68 <=1 
C1469: x66+x68 <=1 
C1470: x66+x69-y66_69 <=1 
C1471: x67+x68-y67_68 <=1 
C1472: x67+x69 <=1 

binary
x0
x1
x2
x3
x4
x5
x6
x7
x8
x9
x10
x11
x12
x13
x14
x15
x16
x17
x18
x19
x20
x21
x22
x23
x24
x25
x26
x27
x28
x29
x30
x31
x32
x33
x34
x35
x36
x37
x38
x39
x40
x41
x42
x43
x44
x45
x46
x47
x48
x49
x50
x51
x52
x53
x54
x55
x56
x57
x58
x59
x60
x61
x62
x63
x64
x65
x66
x67
x68
x69
